/* Objective function */
min: - 0.0054fpdi - 0.0054fpdo + 0.05apdi + 0.05apdo + 0.0002pi + 0.0002po - 0.5fsi - 0.5fso;

apdi = 0.0 hi + -0.0 li + 12.35185 ri + -0.02143 ci + -1.86626 si + 0.0 ti + 0.10621 fTempIi + 0.01169 ami + -151.2358;
asi = 0.0 hi + 0.0 li + -6e-05 ri + -0.00017 ci + -2e-05 si + 0.0 ti + -0.0001 fTempIi + 0.00011 ami + -0.00669;
aTempOi = 0.0 hi + -0.0 li + 0.27558 ri + -0.07717 ci + -0.0536 si + 0.0 ti + 0.79974 fTempIi + -0.00035 ami + 6.85458;
fpdi = 0.0 hi + 0.0 li + 22.76902 ri + -61.2004 ci + -0.04958 si + 0.0 ti + -1.19473 fTempIi + 0.00032 ami + 636.06709;
fsi = 0.0 hi + 0.0 li + -3e-05 ri + -0.14 ci + 1e-05 si + 0.0 ti + 5e-05 fTempIi + -0.0 ami + 2.81293;
fTempOi = 0.0 hi + -0.0 li + -0.27091 ri + 0.07643 ci + 0.05279 si + -0.0 ti + 0.2245 fTempIi + -0.00032 ami + 10.02309;
pi = 0.0 hi + -0.0 li + 227.79444 ri + 2.63333 ci + -22.79619 si + 0.0 ti + -0.0 fTempIi + 0.0 ami + 714.04603;

apdo = 0.0 ho + 0.0 lo + 12.48571 ro + -0.01111 co + -1.88514 so + 0.0 to + 0.12503 fTempIo + 0.012 amo + -154.33546;
aso = 0.0 ho + -0.0 lo + -9e-05 ro + -0.00035 co + -3e-05 so + -0.0 to + -0.00015 fTempIo + 0.00011 amo + -0.0047;
aTempOo = 0.0 ho + 0.0 lo + -0.30699 ro + 0.0793 co + 0.06064 so + 0.0 to + 0.76465 fTempIo + 0.00037 amo + -0.57064;
fpdo = 0.0 ho + -0.0 lo + 25.03728 ro + -72.1854 co + 0.06263 so + -0.0 to + -1.35189 fTempIo + -0.00038 amo + 711.03592;
fso = 0.0 ho + -0.0 lo + 3e-05 ro + -0.15986 co + -1e-05 so + -0.0 to + 6e-05 fTempIo + 0.0 amo + 2.9973;
fTempOo = 0.0 ho + 0.0 lo + 0.29873 ro + -0.08016 co + -0.05922 so + 0.0 to + 0.24758 fTempIo + 0.00034 amo + 12.50195;
po = 0.0 ho + 0.0 lo + 210.425 ro + 2.6 co + -17.33 so + 0.0 to + 0.0 fTempIo + -0.0 amo + 534.4;

/* Variable bounds */
aTempOi > 18.6;
1 =r6i + r8i + r10i + r12i + r14i;
ri =6r6i + 8r8i + 10r10i + 12r12i + 14r14i;
1 =s25i + s30i + s40i;
si =25s25i + 30s30i + 40s40i;
ti = 1;
apdi > 100;
apdi < 300;
asi > 0;
asi < 3;
aTempOi > 5;
aTempOi < 25;
fpdi > 100;
fpdi < 300;
fsi > 0;
fsi < 1.25;
fTempOi > 5;
fTempOi < 25;
pi > 0;
ri > 6;
ri < 14;
ci > 1;
ci < 12;
si > 25;
si < 60;
ti > 1;
ti < 3;
fTempIi > 5;
fTempIi < 25;

/* aTempOo < 11.4; */
1 =r6o + r8o + r10o + r12o + r14o;
ro =6r6o + 8r8o + 10r10o + 12r12o + 14r14o;
1 =s25o + s30o + s40o;
so =25s25o + 30s30o + 40s40o;
to = 2;
apdo > 100;
apdo < 300;
aso > 0;
aso < 3;
aTempOo > 5;
aTempOo < 25;
fpdo > 100;
fpdo < 300;
fso > 0;
fso < 1.25;
fTempOo > 5;
fTempOo < 25;
po > 0;
ro > 6;
ro < 14;
co > 1;
co < 11;
so > 25;
so < 60;
to > 1;
to < 3;
fTempIo > 5;
fTempIo < 25;
int hi,li,si,ti,ci,ri,ami;
int ho,lo,so,to,co,ro,amo;
bin s25i,s30i,s40i,s50i,s60i,r6i,r8i,r10i,r12i,r14i;
bin s25o,s30o,s40o,s50o,s60o,r6o,r8o,r10o,r12o,r14o;
